181 300 12 83 155 10 196 37 97 111 104 192 77 139 162 52 191 12 124 26 194 192 118 143 37 157 29 78 90 200 180 115 180 191 197 86 1 145 122 97 7 177 40 36 116 1 87 106 13 163 132 158 106 1 100 142 110 80 171 151 79 150 65 11 93 13 96 45 109 170 141 116 146 132 103 61 132 189 119 96 103 2 54 8 154 105 149 15 185 72 165 63 173 181 73 65 194 121 109 102 90 1 169 35 132 71 48 16 12 118 111 114 119 164 122 72 69 22 87 53 45 3 67 18 184 92 34 177 12 95 30 53 47 151 39 131 21 86 146 184 155 8 98 73 172 171 97 192 192 135 196 37 137 62 6 120 105 191 48 116 85 30 120 84 180 159 14 152 196 111 136 151 118 185 23 41 155 71 184 98 5 179 86 